p td 22 198
2 1
3 1
3 2
4 1
4 3
4 2
5 1
5 4
5 3
5 2
6 4
6 2
6 3
6 5
6 1
7 5
7 3
7 2
7 4
7 1
7 6
8 2
8 7
8 6
8 1
8 3
8 4
9 2
9 6
9 1
9 3
9 5
9 4
10 9
10 7
10 5
10 1
10 2
10 8
10 4
10 3
10 6
11 9
11 8
11 7
11 10
11 5
11 4
11 6
11 1
11 2
12 8
12 4
12 2
12 5
12 7
12 11
12 3
12 10
13 2
13 5
13 3
13 11
13 9
13 12
13 4
13 7
13 10
13 8
13 1
14 4
14 1
14 6
14 5
14 9
14 3
14 12
14 2
14 10
14 8
14 7
14 11
15 3
15 7
15 13
15 12
15 5
15 6
15 8
15 1
15 9
15 2
15 11
15 4
16 5
16 13
16 6
16 7
16 14
16 15
16 2
16 8
16 4
16 11
16 9
16 10
16 3
16 12
17 8
17 10
17 13
17 15
17 6
17 1
17 14
17 11
17 16
17 3
17 12
17 7
17 9
17 5
17 4
17 2
18 1
18 14
18 15
18 2
18 4
18 9
18 8
18 11
18 6
18 12
18 3
18 13
19 17
19 16
19 15
19 1
19 14
19 6
19 11
19 12
19 3
19 9
19 5
19 18
19 4
19 10
19 2
20 9
20 3
20 10
20 15
20 2
20 12
20 1
20 14
20 8
20 11
20 6
20 19
20 7
20 4
20 13
21 14
21 19
21 11
21 7
21 20
21 3
21 16
21 2
21 15
21 12
21 6
21 13
21 18
21 5
21 4
22 6
22 20
22 19
22 2
22 7
22 18
22 11
22 12
22 13
22 17
22 9
22 1
22 14
22 8
22 10
22 15
22 16
